&CONTROL
    calculation               = "scf"
    prefix                    = "S4"
    pseudo_dir                = "./"
    verbosity                 = "high"
!    tprnfor                   = .TRUE.
    disk_io                   = 'none'
    wf_collect                = .false
/
&SYSTEM
    a                         =  9.580777213543405
    b                         =  9.580777213543405
    c                         =  15.551620647413015
    cosab                     =  -0.5
    cosac                     =  0.0
    cosbc                     =  0.0
    ibrav                     =  4
    degauss                   =  2.00000e-02
    ecutrho                   =  1080
    ecutwfc                   =  90
    nat                       =  54
    ntyp                      =  1
    occupations               =  "smearing"
    smearing                  =  "cold"
/
&ELECTRONS
    conv_thr                  =  1e-10
    electron_maxstep          =  300
    mixing_beta               =  0.2
/
&IONS
    ion_dynamics = "bfgs"
/

K_POINTS {automatic}
 4 4 4 1 1 1
ATOMIC_SPECIES
Mg     24.30500  Mg.pbe-spnl-rrkjus_psl.1.0.0.UPF
ATOMIC_POSITIONS (crystal)
Mg       0.111110108   0.222223217   0.083334394
Mg       0.222223222   0.111110111   0.250000851
Mg       0.111110109   0.222223217   0.416667248
Mg       0.222223217   0.111110109   0.583334752
Mg       0.111110111   0.222223222   0.750001149
Mg       0.222223217   0.111110108   0.916667606
Mg       0.111110380   0.555556190   0.083334423
Mg       0.222222931   0.444443862   0.250000840
Mg       0.111110402   0.555556201   0.416667260
Mg       0.222222918   0.444443835   0.583334730
Mg       0.111110396   0.555556198   0.750001182
Mg       0.222222931   0.444443861   0.916667571
Mg       0.111110108   0.888889892   0.083334394
Mg       0.222222931   0.777777069   0.250000840
Mg       0.111110109   0.888889891   0.416667248
Mg       0.222222918   0.777777082   0.583334730
Mg       0.111110111   0.888889889   0.750001149
Mg       0.222222931   0.777777069   0.916667571
Mg       0.444443861   0.222222931   0.083334429
Mg       0.555556198   0.111110396   0.250000818
Mg       0.444443835   0.222222918   0.416667270
Mg       0.555556201   0.111110402   0.583334740
Mg       0.444443862   0.222222931   0.750001160
Mg       0.555556190   0.111110380   0.916667577
Mg       0.444443810   0.555556190   0.083334423
Mg       0.555556198   0.444443802   0.250000818
Mg       0.444443799   0.555556201   0.416667260
Mg       0.555556201   0.444443799   0.583334740
Mg       0.444443802   0.555556198   0.750001182
Mg       0.555556190   0.444443810   0.916667577
Mg       0.444443810   0.888889620   0.083334423
Mg       0.555556138   0.777777069   0.250000840
Mg       0.444443799   0.888889598   0.416667260
Mg       0.555556165   0.777777082   0.583334730
Mg       0.444443802   0.888889604   0.750001182
Mg       0.555556139   0.777777069   0.916667571
Mg       0.777777069   0.222222931   0.083334429
Mg       0.888889889   0.111110111   0.250000851
Mg       0.777777082   0.222222918   0.416667270
Mg       0.888889891   0.111110109   0.583334752
Mg       0.777777069   0.222222931   0.750001160
Mg       0.888889892   0.111110108   0.916667606
Mg       0.777777069   0.555556139   0.083334429
Mg       0.888889604   0.444443802   0.250000818
Mg       0.777777082   0.555556165   0.416667270
Mg       0.888889598   0.444443799   0.583334740
Mg       0.777777069   0.555556138   0.750001160
Mg       0.888889620   0.444443810   0.916667577
Mg       0.777776783   0.888889892   0.083334394
Mg       0.888889889   0.777776778   0.250000851
Mg       0.777776783   0.888889891   0.416667248
Mg       0.888889891   0.777776783   0.583334752
Mg       0.777776778   0.888889889   0.750001149
Mg       0.888889892   0.777776783   0.916667606
